50 16666
155 136
702 684
450 426
183 95
51 48
725 803
418 366
282 272
943 938
261 252
223 238
353 367
870 931
283 218
315 260
858 948
187 132
280 262
917 1000
609 573
924 929
276 280
133 61
531 559
742 824
702 753
179 189
303 234
508 483
615 607
283 308
788 856
568 624
451 477
123 59
207 150
807 854
558 606
859 868
390 350
272 197
904 954
713 773
949 987
479 436
137 139
107 73
918 978
931 950
520 470
